c *********************************
c * Circuit generated by BenCGen
c *
c * Parity_376
c *
c * Ports with 1 gate(s): 1
c * Ports with 2 gate(s): 376
c * Total gates: 377
c *********************************
p cnf 753 1505
1 379 0
-1 -379 0
1 -378 0
379 -378 0
-1 -379 378 0
1 2 -380 0
-1 2 380 0
1 -2 380 0
-1 -2 -380 0
3 4 -381 0
-3 4 381 0
3 -4 381 0
-3 -4 -381 0
5 6 -382 0
-5 6 382 0
5 -6 382 0
-5 -6 -382 0
7 8 -383 0
-7 8 383 0
7 -8 383 0
-7 -8 -383 0
9 10 -384 0
-9 10 384 0
9 -10 384 0
-9 -10 -384 0
11 12 -385 0
-11 12 385 0
11 -12 385 0
-11 -12 -385 0
13 14 -386 0
-13 14 386 0
13 -14 386 0
-13 -14 -386 0
15 16 -387 0
-15 16 387 0
15 -16 387 0
-15 -16 -387 0
17 18 -388 0
-17 18 388 0
17 -18 388 0
-17 -18 -388 0
19 20 -389 0
-19 20 389 0
19 -20 389 0
-19 -20 -389 0
21 22 -390 0
-21 22 390 0
21 -22 390 0
-21 -22 -390 0
23 24 -391 0
-23 24 391 0
23 -24 391 0
-23 -24 -391 0
25 26 -392 0
-25 26 392 0
25 -26 392 0
-25 -26 -392 0
27 28 -393 0
-27 28 393 0
27 -28 393 0
-27 -28 -393 0
29 30 -394 0
-29 30 394 0
29 -30 394 0
-29 -30 -394 0
31 32 -395 0
-31 32 395 0
31 -32 395 0
-31 -32 -395 0
33 34 -396 0
-33 34 396 0
33 -34 396 0
-33 -34 -396 0
35 36 -397 0
-35 36 397 0
35 -36 397 0
-35 -36 -397 0
37 38 -398 0
-37 38 398 0
37 -38 398 0
-37 -38 -398 0
39 40 -399 0
-39 40 399 0
39 -40 399 0
-39 -40 -399 0
41 42 -400 0
-41 42 400 0
41 -42 400 0
-41 -42 -400 0
43 44 -401 0
-43 44 401 0
43 -44 401 0
-43 -44 -401 0
45 46 -402 0
-45 46 402 0
45 -46 402 0
-45 -46 -402 0
47 48 -403 0
-47 48 403 0
47 -48 403 0
-47 -48 -403 0
49 50 -404 0
-49 50 404 0
49 -50 404 0
-49 -50 -404 0
51 52 -405 0
-51 52 405 0
51 -52 405 0
-51 -52 -405 0
53 54 -406 0
-53 54 406 0
53 -54 406 0
-53 -54 -406 0
55 56 -407 0
-55 56 407 0
55 -56 407 0
-55 -56 -407 0
57 58 -408 0
-57 58 408 0
57 -58 408 0
-57 -58 -408 0
59 60 -409 0
-59 60 409 0
59 -60 409 0
-59 -60 -409 0
61 62 -410 0
-61 62 410 0
61 -62 410 0
-61 -62 -410 0
63 64 -411 0
-63 64 411 0
63 -64 411 0
-63 -64 -411 0
65 66 -412 0
-65 66 412 0
65 -66 412 0
-65 -66 -412 0
67 68 -413 0
-67 68 413 0
67 -68 413 0
-67 -68 -413 0
69 70 -414 0
-69 70 414 0
69 -70 414 0
-69 -70 -414 0
71 72 -415 0
-71 72 415 0
71 -72 415 0
-71 -72 -415 0
73 74 -416 0
-73 74 416 0
73 -74 416 0
-73 -74 -416 0
75 76 -417 0
-75 76 417 0
75 -76 417 0
-75 -76 -417 0
77 78 -418 0
-77 78 418 0
77 -78 418 0
-77 -78 -418 0
79 80 -419 0
-79 80 419 0
79 -80 419 0
-79 -80 -419 0
81 82 -420 0
-81 82 420 0
81 -82 420 0
-81 -82 -420 0
83 84 -421 0
-83 84 421 0
83 -84 421 0
-83 -84 -421 0
85 86 -422 0
-85 86 422 0
85 -86 422 0
-85 -86 -422 0
87 88 -423 0
-87 88 423 0
87 -88 423 0
-87 -88 -423 0
89 90 -424 0
-89 90 424 0
89 -90 424 0
-89 -90 -424 0
91 92 -425 0
-91 92 425 0
91 -92 425 0
-91 -92 -425 0
93 94 -426 0
-93 94 426 0
93 -94 426 0
-93 -94 -426 0
95 96 -427 0
-95 96 427 0
95 -96 427 0
-95 -96 -427 0
97 98 -428 0
-97 98 428 0
97 -98 428 0
-97 -98 -428 0
99 100 -429 0
-99 100 429 0
99 -100 429 0
-99 -100 -429 0
101 102 -430 0
-101 102 430 0
101 -102 430 0
-101 -102 -430 0
103 104 -431 0
-103 104 431 0
103 -104 431 0
-103 -104 -431 0
105 106 -432 0
-105 106 432 0
105 -106 432 0
-105 -106 -432 0
107 108 -433 0
-107 108 433 0
107 -108 433 0
-107 -108 -433 0
109 110 -434 0
-109 110 434 0
109 -110 434 0
-109 -110 -434 0
111 112 -435 0
-111 112 435 0
111 -112 435 0
-111 -112 -435 0
113 114 -436 0
-113 114 436 0
113 -114 436 0
-113 -114 -436 0
115 116 -437 0
-115 116 437 0
115 -116 437 0
-115 -116 -437 0
117 118 -438 0
-117 118 438 0
117 -118 438 0
-117 -118 -438 0
119 120 -439 0
-119 120 439 0
119 -120 439 0
-119 -120 -439 0
121 122 -440 0
-121 122 440 0
121 -122 440 0
-121 -122 -440 0
123 124 -441 0
-123 124 441 0
123 -124 441 0
-123 -124 -441 0
125 126 -442 0
-125 126 442 0
125 -126 442 0
-125 -126 -442 0
127 128 -443 0
-127 128 443 0
127 -128 443 0
-127 -128 -443 0
129 130 -444 0
-129 130 444 0
129 -130 444 0
-129 -130 -444 0
131 132 -445 0
-131 132 445 0
131 -132 445 0
-131 -132 -445 0
133 134 -446 0
-133 134 446 0
133 -134 446 0
-133 -134 -446 0
135 136 -447 0
-135 136 447 0
135 -136 447 0
-135 -136 -447 0
137 138 -448 0
-137 138 448 0
137 -138 448 0
-137 -138 -448 0
139 140 -449 0
-139 140 449 0
139 -140 449 0
-139 -140 -449 0
141 142 -450 0
-141 142 450 0
141 -142 450 0
-141 -142 -450 0
143 144 -451 0
-143 144 451 0
143 -144 451 0
-143 -144 -451 0
145 146 -452 0
-145 146 452 0
145 -146 452 0
-145 -146 -452 0
147 148 -453 0
-147 148 453 0
147 -148 453 0
-147 -148 -453 0
149 150 -454 0
-149 150 454 0
149 -150 454 0
-149 -150 -454 0
151 152 -455 0
-151 152 455 0
151 -152 455 0
-151 -152 -455 0
153 154 -456 0
-153 154 456 0
153 -154 456 0
-153 -154 -456 0
155 156 -457 0
-155 156 457 0
155 -156 457 0
-155 -156 -457 0
157 158 -458 0
-157 158 458 0
157 -158 458 0
-157 -158 -458 0
159 160 -459 0
-159 160 459 0
159 -160 459 0
-159 -160 -459 0
161 162 -460 0
-161 162 460 0
161 -162 460 0
-161 -162 -460 0
163 164 -461 0
-163 164 461 0
163 -164 461 0
-163 -164 -461 0
165 166 -462 0
-165 166 462 0
165 -166 462 0
-165 -166 -462 0
167 168 -463 0
-167 168 463 0
167 -168 463 0
-167 -168 -463 0
169 170 -464 0
-169 170 464 0
169 -170 464 0
-169 -170 -464 0
171 172 -465 0
-171 172 465 0
171 -172 465 0
-171 -172 -465 0
173 174 -466 0
-173 174 466 0
173 -174 466 0
-173 -174 -466 0
175 176 -467 0
-175 176 467 0
175 -176 467 0
-175 -176 -467 0
177 178 -468 0
-177 178 468 0
177 -178 468 0
-177 -178 -468 0
179 180 -469 0
-179 180 469 0
179 -180 469 0
-179 -180 -469 0
181 182 -470 0
-181 182 470 0
181 -182 470 0
-181 -182 -470 0
183 184 -471 0
-183 184 471 0
183 -184 471 0
-183 -184 -471 0
185 186 -472 0
-185 186 472 0
185 -186 472 0
-185 -186 -472 0
187 188 -473 0
-187 188 473 0
187 -188 473 0
-187 -188 -473 0
189 190 -474 0
-189 190 474 0
189 -190 474 0
-189 -190 -474 0
191 192 -475 0
-191 192 475 0
191 -192 475 0
-191 -192 -475 0
193 194 -476 0
-193 194 476 0
193 -194 476 0
-193 -194 -476 0
195 196 -477 0
-195 196 477 0
195 -196 477 0
-195 -196 -477 0
197 198 -478 0
-197 198 478 0
197 -198 478 0
-197 -198 -478 0
199 200 -479 0
-199 200 479 0
199 -200 479 0
-199 -200 -479 0
201 202 -480 0
-201 202 480 0
201 -202 480 0
-201 -202 -480 0
203 204 -481 0
-203 204 481 0
203 -204 481 0
-203 -204 -481 0
205 206 -482 0
-205 206 482 0
205 -206 482 0
-205 -206 -482 0
207 208 -483 0
-207 208 483 0
207 -208 483 0
-207 -208 -483 0
209 210 -484 0
-209 210 484 0
209 -210 484 0
-209 -210 -484 0
211 212 -485 0
-211 212 485 0
211 -212 485 0
-211 -212 -485 0
213 214 -486 0
-213 214 486 0
213 -214 486 0
-213 -214 -486 0
215 216 -487 0
-215 216 487 0
215 -216 487 0
-215 -216 -487 0
217 218 -488 0
-217 218 488 0
217 -218 488 0
-217 -218 -488 0
219 220 -489 0
-219 220 489 0
219 -220 489 0
-219 -220 -489 0
221 222 -490 0
-221 222 490 0
221 -222 490 0
-221 -222 -490 0
223 224 -491 0
-223 224 491 0
223 -224 491 0
-223 -224 -491 0
225 226 -492 0
-225 226 492 0
225 -226 492 0
-225 -226 -492 0
227 228 -493 0
-227 228 493 0
227 -228 493 0
-227 -228 -493 0
229 230 -494 0
-229 230 494 0
229 -230 494 0
-229 -230 -494 0
231 232 -495 0
-231 232 495 0
231 -232 495 0
-231 -232 -495 0
233 234 -496 0
-233 234 496 0
233 -234 496 0
-233 -234 -496 0
235 236 -497 0
-235 236 497 0
235 -236 497 0
-235 -236 -497 0
237 238 -498 0
-237 238 498 0
237 -238 498 0
-237 -238 -498 0
239 240 -499 0
-239 240 499 0
239 -240 499 0
-239 -240 -499 0
241 242 -500 0
-241 242 500 0
241 -242 500 0
-241 -242 -500 0
243 244 -501 0
-243 244 501 0
243 -244 501 0
-243 -244 -501 0
245 246 -502 0
-245 246 502 0
245 -246 502 0
-245 -246 -502 0
247 248 -503 0
-247 248 503 0
247 -248 503 0
-247 -248 -503 0
249 250 -504 0
-249 250 504 0
249 -250 504 0
-249 -250 -504 0
251 252 -505 0
-251 252 505 0
251 -252 505 0
-251 -252 -505 0
253 254 -506 0
-253 254 506 0
253 -254 506 0
-253 -254 -506 0
255 256 -507 0
-255 256 507 0
255 -256 507 0
-255 -256 -507 0
257 258 -508 0
-257 258 508 0
257 -258 508 0
-257 -258 -508 0
259 260 -509 0
-259 260 509 0
259 -260 509 0
-259 -260 -509 0
261 262 -510 0
-261 262 510 0
261 -262 510 0
-261 -262 -510 0
263 264 -511 0
-263 264 511 0
263 -264 511 0
-263 -264 -511 0
265 266 -512 0
-265 266 512 0
265 -266 512 0
-265 -266 -512 0
267 268 -513 0
-267 268 513 0
267 -268 513 0
-267 -268 -513 0
269 270 -514 0
-269 270 514 0
269 -270 514 0
-269 -270 -514 0
271 272 -515 0
-271 272 515 0
271 -272 515 0
-271 -272 -515 0
273 274 -516 0
-273 274 516 0
273 -274 516 0
-273 -274 -516 0
275 276 -517 0
-275 276 517 0
275 -276 517 0
-275 -276 -517 0
277 278 -518 0
-277 278 518 0
277 -278 518 0
-277 -278 -518 0
279 280 -519 0
-279 280 519 0
279 -280 519 0
-279 -280 -519 0
281 282 -520 0
-281 282 520 0
281 -282 520 0
-281 -282 -520 0
283 284 -521 0
-283 284 521 0
283 -284 521 0
-283 -284 -521 0
285 286 -522 0
-285 286 522 0
285 -286 522 0
-285 -286 -522 0
287 288 -523 0
-287 288 523 0
287 -288 523 0
-287 -288 -523 0
289 290 -524 0
-289 290 524 0
289 -290 524 0
-289 -290 -524 0
291 292 -525 0
-291 292 525 0
291 -292 525 0
-291 -292 -525 0
293 294 -526 0
-293 294 526 0
293 -294 526 0
-293 -294 -526 0
295 296 -527 0
-295 296 527 0
295 -296 527 0
-295 -296 -527 0
297 298 -528 0
-297 298 528 0
297 -298 528 0
-297 -298 -528 0
299 300 -529 0
-299 300 529 0
299 -300 529 0
-299 -300 -529 0
301 302 -530 0
-301 302 530 0
301 -302 530 0
-301 -302 -530 0
303 304 -531 0
-303 304 531 0
303 -304 531 0
-303 -304 -531 0
305 306 -532 0
-305 306 532 0
305 -306 532 0
-305 -306 -532 0
307 308 -533 0
-307 308 533 0
307 -308 533 0
-307 -308 -533 0
309 310 -534 0
-309 310 534 0
309 -310 534 0
-309 -310 -534 0
311 312 -535 0
-311 312 535 0
311 -312 535 0
-311 -312 -535 0
313 314 -536 0
-313 314 536 0
313 -314 536 0
-313 -314 -536 0
315 316 -537 0
-315 316 537 0
315 -316 537 0
-315 -316 -537 0
317 318 -538 0
-317 318 538 0
317 -318 538 0
-317 -318 -538 0
319 320 -539 0
-319 320 539 0
319 -320 539 0
-319 -320 -539 0
321 322 -540 0
-321 322 540 0
321 -322 540 0
-321 -322 -540 0
323 324 -541 0
-323 324 541 0
323 -324 541 0
-323 -324 -541 0
325 326 -542 0
-325 326 542 0
325 -326 542 0
-325 -326 -542 0
327 328 -543 0
-327 328 543 0
327 -328 543 0
-327 -328 -543 0
329 330 -544 0
-329 330 544 0
329 -330 544 0
-329 -330 -544 0
331 332 -545 0
-331 332 545 0
331 -332 545 0
-331 -332 -545 0
333 334 -546 0
-333 334 546 0
333 -334 546 0
-333 -334 -546 0
335 336 -547 0
-335 336 547 0
335 -336 547 0
-335 -336 -547 0
337 338 -548 0
-337 338 548 0
337 -338 548 0
-337 -338 -548 0
339 340 -549 0
-339 340 549 0
339 -340 549 0
-339 -340 -549 0
341 342 -550 0
-341 342 550 0
341 -342 550 0
-341 -342 -550 0
343 344 -551 0
-343 344 551 0
343 -344 551 0
-343 -344 -551 0
345 346 -552 0
-345 346 552 0
345 -346 552 0
-345 -346 -552 0
347 348 -553 0
-347 348 553 0
347 -348 553 0
-347 -348 -553 0
349 350 -554 0
-349 350 554 0
349 -350 554 0
-349 -350 -554 0
351 352 -555 0
-351 352 555 0
351 -352 555 0
-351 -352 -555 0
353 354 -556 0
-353 354 556 0
353 -354 556 0
-353 -354 -556 0
355 356 -557 0
-355 356 557 0
355 -356 557 0
-355 -356 -557 0
357 358 -558 0
-357 358 558 0
357 -358 558 0
-357 -358 -558 0
359 360 -559 0
-359 360 559 0
359 -360 559 0
-359 -360 -559 0
361 362 -560 0
-361 362 560 0
361 -362 560 0
-361 -362 -560 0
363 364 -561 0
-363 364 561 0
363 -364 561 0
-363 -364 -561 0
365 366 -562 0
-365 366 562 0
365 -366 562 0
-365 -366 -562 0
367 368 -563 0
-367 368 563 0
367 -368 563 0
-367 -368 -563 0
369 370 -564 0
-369 370 564 0
369 -370 564 0
-369 -370 -564 0
371 372 -565 0
-371 372 565 0
371 -372 565 0
-371 -372 -565 0
373 374 -566 0
-373 374 566 0
373 -374 566 0
-373 -374 -566 0
375 376 -567 0
-375 376 567 0
375 -376 567 0
-375 -376 -567 0
380 381 -568 0
-380 381 568 0
380 -381 568 0
-380 -381 -568 0
382 383 -569 0
-382 383 569 0
382 -383 569 0
-382 -383 -569 0
384 385 -570 0
-384 385 570 0
384 -385 570 0
-384 -385 -570 0
386 387 -571 0
-386 387 571 0
386 -387 571 0
-386 -387 -571 0
388 389 -572 0
-388 389 572 0
388 -389 572 0
-388 -389 -572 0
390 391 -573 0
-390 391 573 0
390 -391 573 0
-390 -391 -573 0
392 393 -574 0
-392 393 574 0
392 -393 574 0
-392 -393 -574 0
394 395 -575 0
-394 395 575 0
394 -395 575 0
-394 -395 -575 0
396 397 -576 0
-396 397 576 0
396 -397 576 0
-396 -397 -576 0
398 399 -577 0
-398 399 577 0
398 -399 577 0
-398 -399 -577 0
400 401 -578 0
-400 401 578 0
400 -401 578 0
-400 -401 -578 0
402 403 -579 0
-402 403 579 0
402 -403 579 0
-402 -403 -579 0
404 405 -580 0
-404 405 580 0
404 -405 580 0
-404 -405 -580 0
406 407 -581 0
-406 407 581 0
406 -407 581 0
-406 -407 -581 0
408 409 -582 0
-408 409 582 0
408 -409 582 0
-408 -409 -582 0
410 411 -583 0
-410 411 583 0
410 -411 583 0
-410 -411 -583 0
412 413 -584 0
-412 413 584 0
412 -413 584 0
-412 -413 -584 0
414 415 -585 0
-414 415 585 0
414 -415 585 0
-414 -415 -585 0
416 417 -586 0
-416 417 586 0
416 -417 586 0
-416 -417 -586 0
418 419 -587 0
-418 419 587 0
418 -419 587 0
-418 -419 -587 0
420 421 -588 0
-420 421 588 0
420 -421 588 0
-420 -421 -588 0
422 423 -589 0
-422 423 589 0
422 -423 589 0
-422 -423 -589 0
424 425 -590 0
-424 425 590 0
424 -425 590 0
-424 -425 -590 0
426 427 -591 0
-426 427 591 0
426 -427 591 0
-426 -427 -591 0
428 429 -592 0
-428 429 592 0
428 -429 592 0
-428 -429 -592 0
430 431 -593 0
-430 431 593 0
430 -431 593 0
-430 -431 -593 0
432 433 -594 0
-432 433 594 0
432 -433 594 0
-432 -433 -594 0
434 435 -595 0
-434 435 595 0
434 -435 595 0
-434 -435 -595 0
436 437 -596 0
-436 437 596 0
436 -437 596 0
-436 -437 -596 0
438 439 -597 0
-438 439 597 0
438 -439 597 0
-438 -439 -597 0
440 441 -598 0
-440 441 598 0
440 -441 598 0
-440 -441 -598 0
442 443 -599 0
-442 443 599 0
442 -443 599 0
-442 -443 -599 0
444 445 -600 0
-444 445 600 0
444 -445 600 0
-444 -445 -600 0
446 447 -601 0
-446 447 601 0
446 -447 601 0
-446 -447 -601 0
448 449 -602 0
-448 449 602 0
448 -449 602 0
-448 -449 -602 0
450 451 -603 0
-450 451 603 0
450 -451 603 0
-450 -451 -603 0
452 453 -604 0
-452 453 604 0
452 -453 604 0
-452 -453 -604 0
454 455 -605 0
-454 455 605 0
454 -455 605 0
-454 -455 -605 0
456 457 -606 0
-456 457 606 0
456 -457 606 0
-456 -457 -606 0
458 459 -607 0
-458 459 607 0
458 -459 607 0
-458 -459 -607 0
460 461 -608 0
-460 461 608 0
460 -461 608 0
-460 -461 -608 0
462 463 -609 0
-462 463 609 0
462 -463 609 0
-462 -463 -609 0
464 465 -610 0
-464 465 610 0
464 -465 610 0
-464 -465 -610 0
466 467 -611 0
-466 467 611 0
466 -467 611 0
-466 -467 -611 0
468 469 -612 0
-468 469 612 0
468 -469 612 0
-468 -469 -612 0
470 471 -613 0
-470 471 613 0
470 -471 613 0
-470 -471 -613 0
472 473 -614 0
-472 473 614 0
472 -473 614 0
-472 -473 -614 0
474 475 -615 0
-474 475 615 0
474 -475 615 0
-474 -475 -615 0
476 477 -616 0
-476 477 616 0
476 -477 616 0
-476 -477 -616 0
478 479 -617 0
-478 479 617 0
478 -479 617 0
-478 -479 -617 0
480 481 -618 0
-480 481 618 0
480 -481 618 0
-480 -481 -618 0
482 483 -619 0
-482 483 619 0
482 -483 619 0
-482 -483 -619 0
484 485 -620 0
-484 485 620 0
484 -485 620 0
-484 -485 -620 0
486 487 -621 0
-486 487 621 0
486 -487 621 0
-486 -487 -621 0
488 489 -622 0
-488 489 622 0
488 -489 622 0
-488 -489 -622 0
490 491 -623 0
-490 491 623 0
490 -491 623 0
-490 -491 -623 0
492 493 -624 0
-492 493 624 0
492 -493 624 0
-492 -493 -624 0
494 495 -625 0
-494 495 625 0
494 -495 625 0
-494 -495 -625 0
496 497 -626 0
-496 497 626 0
496 -497 626 0
-496 -497 -626 0
498 499 -627 0
-498 499 627 0
498 -499 627 0
-498 -499 -627 0
500 501 -628 0
-500 501 628 0
500 -501 628 0
-500 -501 -628 0
502 503 -629 0
-502 503 629 0
502 -503 629 0
-502 -503 -629 0
504 505 -630 0
-504 505 630 0
504 -505 630 0
-504 -505 -630 0
506 507 -631 0
-506 507 631 0
506 -507 631 0
-506 -507 -631 0
508 509 -632 0
-508 509 632 0
508 -509 632 0
-508 -509 -632 0
510 511 -633 0
-510 511 633 0
510 -511 633 0
-510 -511 -633 0
512 513 -634 0
-512 513 634 0
512 -513 634 0
-512 -513 -634 0
514 515 -635 0
-514 515 635 0
514 -515 635 0
-514 -515 -635 0
516 517 -636 0
-516 517 636 0
516 -517 636 0
-516 -517 -636 0
518 519 -637 0
-518 519 637 0
518 -519 637 0
-518 -519 -637 0
520 521 -638 0
-520 521 638 0
520 -521 638 0
-520 -521 -638 0
522 523 -639 0
-522 523 639 0
522 -523 639 0
-522 -523 -639 0
524 525 -640 0
-524 525 640 0
524 -525 640 0
-524 -525 -640 0
526 527 -641 0
-526 527 641 0
526 -527 641 0
-526 -527 -641 0
528 529 -642 0
-528 529 642 0
528 -529 642 0
-528 -529 -642 0
530 531 -643 0
-530 531 643 0
530 -531 643 0
-530 -531 -643 0
532 533 -644 0
-532 533 644 0
532 -533 644 0
-532 -533 -644 0
534 535 -645 0
-534 535 645 0
534 -535 645 0
-534 -535 -645 0
536 537 -646 0
-536 537 646 0
536 -537 646 0
-536 -537 -646 0
538 539 -647 0
-538 539 647 0
538 -539 647 0
-538 -539 -647 0
540 541 -648 0
-540 541 648 0
540 -541 648 0
-540 -541 -648 0
542 543 -649 0
-542 543 649 0
542 -543 649 0
-542 -543 -649 0
544 545 -650 0
-544 545 650 0
544 -545 650 0
-544 -545 -650 0
546 547 -651 0
-546 547 651 0
546 -547 651 0
-546 -547 -651 0
548 549 -652 0
-548 549 652 0
548 -549 652 0
-548 -549 -652 0
550 551 -653 0
-550 551 653 0
550 -551 653 0
-550 -551 -653 0
552 553 -654 0
-552 553 654 0
552 -553 654 0
-552 -553 -654 0
554 555 -655 0
-554 555 655 0
554 -555 655 0
-554 -555 -655 0
556 557 -656 0
-556 557 656 0
556 -557 656 0
-556 -557 -656 0
558 559 -657 0
-558 559 657 0
558 -559 657 0
-558 -559 -657 0
560 561 -658 0
-560 561 658 0
560 -561 658 0
-560 -561 -658 0
562 563 -659 0
-562 563 659 0
562 -563 659 0
-562 -563 -659 0
564 565 -660 0
-564 565 660 0
564 -565 660 0
-564 -565 -660 0
566 567 -661 0
-566 567 661 0
566 -567 661 0
-566 -567 -661 0
568 569 -662 0
-568 569 662 0
568 -569 662 0
-568 -569 -662 0
570 571 -663 0
-570 571 663 0
570 -571 663 0
-570 -571 -663 0
572 573 -664 0
-572 573 664 0
572 -573 664 0
-572 -573 -664 0
574 575 -665 0
-574 575 665 0
574 -575 665 0
-574 -575 -665 0
576 577 -666 0
-576 577 666 0
576 -577 666 0
-576 -577 -666 0
578 579 -667 0
-578 579 667 0
578 -579 667 0
-578 -579 -667 0
580 581 -668 0
-580 581 668 0
580 -581 668 0
-580 -581 -668 0
582 583 -669 0
-582 583 669 0
582 -583 669 0
-582 -583 -669 0
584 585 -670 0
-584 585 670 0
584 -585 670 0
-584 -585 -670 0
586 587 -671 0
-586 587 671 0
586 -587 671 0
-586 -587 -671 0
588 589 -672 0
-588 589 672 0
588 -589 672 0
-588 -589 -672 0
590 591 -673 0
-590 591 673 0
590 -591 673 0
-590 -591 -673 0
592 593 -674 0
-592 593 674 0
592 -593 674 0
-592 -593 -674 0
594 595 -675 0
-594 595 675 0
594 -595 675 0
-594 -595 -675 0
596 597 -676 0
-596 597 676 0
596 -597 676 0
-596 -597 -676 0
598 599 -677 0
-598 599 677 0
598 -599 677 0
-598 -599 -677 0
600 601 -678 0
-600 601 678 0
600 -601 678 0
-600 -601 -678 0
602 603 -679 0
-602 603 679 0
602 -603 679 0
-602 -603 -679 0
604 605 -680 0
-604 605 680 0
604 -605 680 0
-604 -605 -680 0
606 607 -681 0
-606 607 681 0
606 -607 681 0
-606 -607 -681 0
608 609 -682 0
-608 609 682 0
608 -609 682 0
-608 -609 -682 0
610 611 -683 0
-610 611 683 0
610 -611 683 0
-610 -611 -683 0
612 613 -684 0
-612 613 684 0
612 -613 684 0
-612 -613 -684 0
614 615 -685 0
-614 615 685 0
614 -615 685 0
-614 -615 -685 0
616 617 -686 0
-616 617 686 0
616 -617 686 0
-616 -617 -686 0
618 619 -687 0
-618 619 687 0
618 -619 687 0
-618 -619 -687 0
620 621 -688 0
-620 621 688 0
620 -621 688 0
-620 -621 -688 0
622 623 -689 0
-622 623 689 0
622 -623 689 0
-622 -623 -689 0
624 625 -690 0
-624 625 690 0
624 -625 690 0
-624 -625 -690 0
626 627 -691 0
-626 627 691 0
626 -627 691 0
-626 -627 -691 0
628 629 -692 0
-628 629 692 0
628 -629 692 0
-628 -629 -692 0
630 631 -693 0
-630 631 693 0
630 -631 693 0
-630 -631 -693 0
632 633 -694 0
-632 633 694 0
632 -633 694 0
-632 -633 -694 0
634 635 -695 0
-634 635 695 0
634 -635 695 0
-634 -635 -695 0
636 637 -696 0
-636 637 696 0
636 -637 696 0
-636 -637 -696 0
638 639 -697 0
-638 639 697 0
638 -639 697 0
-638 -639 -697 0
640 641 -698 0
-640 641 698 0
640 -641 698 0
-640 -641 -698 0
642 643 -699 0
-642 643 699 0
642 -643 699 0
-642 -643 -699 0
644 645 -700 0
-644 645 700 0
644 -645 700 0
-644 -645 -700 0
646 647 -701 0
-646 647 701 0
646 -647 701 0
-646 -647 -701 0
648 649 -702 0
-648 649 702 0
648 -649 702 0
-648 -649 -702 0
650 651 -703 0
-650 651 703 0
650 -651 703 0
-650 -651 -703 0
652 653 -704 0
-652 653 704 0
652 -653 704 0
-652 -653 -704 0
654 655 -705 0
-654 655 705 0
654 -655 705 0
-654 -655 -705 0
656 657 -706 0
-656 657 706 0
656 -657 706 0
-656 -657 -706 0
658 659 -707 0
-658 659 707 0
658 -659 707 0
-658 -659 -707 0
660 661 -708 0
-660 661 708 0
660 -661 708 0
-660 -661 -708 0
662 663 -709 0
-662 663 709 0
662 -663 709 0
-662 -663 -709 0
664 665 -710 0
-664 665 710 0
664 -665 710 0
-664 -665 -710 0
666 667 -711 0
-666 667 711 0
666 -667 711 0
-666 -667 -711 0
668 669 -712 0
-668 669 712 0
668 -669 712 0
-668 -669 -712 0
670 671 -713 0
-670 671 713 0
670 -671 713 0
-670 -671 -713 0
672 673 -714 0
-672 673 714 0
672 -673 714 0
-672 -673 -714 0
674 675 -715 0
-674 675 715 0
674 -675 715 0
-674 -675 -715 0
676 677 -716 0
-676 677 716 0
676 -677 716 0
-676 -677 -716 0
678 679 -717 0
-678 679 717 0
678 -679 717 0
-678 -679 -717 0
680 681 -718 0
-680 681 718 0
680 -681 718 0
-680 -681 -718 0
682 683 -719 0
-682 683 719 0
682 -683 719 0
-682 -683 -719 0
684 685 -720 0
-684 685 720 0
684 -685 720 0
-684 -685 -720 0
686 687 -721 0
-686 687 721 0
686 -687 721 0
-686 -687 -721 0
688 689 -722 0
-688 689 722 0
688 -689 722 0
-688 -689 -722 0
690 691 -723 0
-690 691 723 0
690 -691 723 0
-690 -691 -723 0
692 693 -724 0
-692 693 724 0
692 -693 724 0
-692 -693 -724 0
694 695 -725 0
-694 695 725 0
694 -695 725 0
-694 -695 -725 0
696 697 -726 0
-696 697 726 0
696 -697 726 0
-696 -697 -726 0
698 699 -727 0
-698 699 727 0
698 -699 727 0
-698 -699 -727 0
700 701 -728 0
-700 701 728 0
700 -701 728 0
-700 -701 -728 0
702 703 -729 0
-702 703 729 0
702 -703 729 0
-702 -703 -729 0
704 705 -730 0
-704 705 730 0
704 -705 730 0
-704 -705 -730 0
706 707 -731 0
-706 707 731 0
706 -707 731 0
-706 -707 -731 0
709 710 -732 0
-709 710 732 0
709 -710 732 0
-709 -710 -732 0
711 712 -733 0
-711 712 733 0
711 -712 733 0
-711 -712 -733 0
713 714 -734 0
-713 714 734 0
713 -714 734 0
-713 -714 -734 0
715 716 -735 0
-715 716 735 0
715 -716 735 0
-715 -716 -735 0
717 718 -736 0
-717 718 736 0
717 -718 736 0
-717 -718 -736 0
719 720 -737 0
-719 720 737 0
719 -720 737 0
-719 -720 -737 0
721 722 -738 0
-721 722 738 0
721 -722 738 0
-721 -722 -738 0
723 724 -739 0
-723 724 739 0
723 -724 739 0
-723 -724 -739 0
725 726 -740 0
-725 726 740 0
725 -726 740 0
-725 -726 -740 0
727 728 -741 0
-727 728 741 0
727 -728 741 0
-727 -728 -741 0
729 730 -742 0
-729 730 742 0
729 -730 742 0
-729 -730 -742 0
731 708 -743 0
-731 708 743 0
731 -708 743 0
-731 -708 -743 0
732 733 -744 0
-732 733 744 0
732 -733 744 0
-732 -733 -744 0
734 735 -745 0
-734 735 745 0
734 -735 745 0
-734 -735 -745 0
736 737 -746 0
-736 737 746 0
736 -737 746 0
-736 -737 -746 0
738 739 -747 0
-738 739 747 0
738 -739 747 0
-738 -739 -747 0
740 741 -748 0
-740 741 748 0
740 -741 748 0
-740 -741 -748 0
742 743 -749 0
-742 743 749 0
742 -743 749 0
-742 -743 -749 0
744 745 -750 0
-744 745 750 0
744 -745 750 0
-744 -745 -750 0
746 747 -751 0
-746 747 751 0
746 -747 751 0
-746 -747 -751 0
748 749 -752 0
-748 749 752 0
748 -749 752 0
-748 -749 -752 0
750 751 -753 0
-750 751 753 0
750 -751 753 0
-750 -751 -753 0
753 752 -377 0
-753 752 377 0
753 -752 377 0
-753 -752 -377 0
